c SAT Expression for N=10 queens
c Chess board has 100 positions
p cnf 100 1490
1 2 3 4 5 6 7 8 9 10 0
-1 -2 0
-1 -3 0
-1 -4 0
-1 -5 0
-1 -6 0
-1 -7 0
-1 -8 0
-1 -9 0
-1 -10 0
-2 -3 0
-2 -4 0
-2 -5 0
-2 -6 0
-2 -7 0
-2 -8 0
-2 -9 0
-2 -10 0
-3 -4 0
-3 -5 0
-3 -6 0
-3 -7 0
-3 -8 0
-3 -9 0
-3 -10 0
-4 -5 0
-4 -6 0
-4 -7 0
-4 -8 0
-4 -9 0
-4 -10 0
-5 -6 0
-5 -7 0
-5 -8 0
-5 -9 0
-5 -10 0
-6 -7 0
-6 -8 0
-6 -9 0
-6 -10 0
-7 -8 0
-7 -9 0
-7 -10 0
-8 -9 0
-8 -10 0
-9 -10 0
11 12 13 14 15 16 17 18 19 20 0
-11 -12 0
-11 -13 0
-11 -14 0
-11 -15 0
-11 -16 0
-11 -17 0
-11 -18 0
-11 -19 0
-11 -20 0
-12 -13 0
-12 -14 0
-12 -15 0
-12 -16 0
-12 -17 0
-12 -18 0
-12 -19 0
-12 -20 0
-13 -14 0
-13 -15 0
-13 -16 0
-13 -17 0
-13 -18 0
-13 -19 0
-13 -20 0
-14 -15 0
-14 -16 0
-14 -17 0
-14 -18 0
-14 -19 0
-14 -20 0
-15 -16 0
-15 -17 0
-15 -18 0
-15 -19 0
-15 -20 0
-16 -17 0
-16 -18 0
-16 -19 0
-16 -20 0
-17 -18 0
-17 -19 0
-17 -20 0
-18 -19 0
-18 -20 0
-19 -20 0
21 22 23 24 25 26 27 28 29 30 0
-21 -22 0
-21 -23 0
-21 -24 0
-21 -25 0
-21 -26 0
-21 -27 0
-21 -28 0
-21 -29 0
-21 -30 0
-22 -23 0
-22 -24 0
-22 -25 0
-22 -26 0
-22 -27 0
-22 -28 0
-22 -29 0
-22 -30 0
-23 -24 0
-23 -25 0
-23 -26 0
-23 -27 0
-23 -28 0
-23 -29 0
-23 -30 0
-24 -25 0
-24 -26 0
-24 -27 0
-24 -28 0
-24 -29 0
-24 -30 0
-25 -26 0
-25 -27 0
-25 -28 0
-25 -29 0
-25 -30 0
-26 -27 0
-26 -28 0
-26 -29 0
-26 -30 0
-27 -28 0
-27 -29 0
-27 -30 0
-28 -29 0
-28 -30 0
-29 -30 0
31 32 33 34 35 36 37 38 39 40 0
-31 -32 0
-31 -33 0
-31 -34 0
-31 -35 0
-31 -36 0
-31 -37 0
-31 -38 0
-31 -39 0
-31 -40 0
-32 -33 0
-32 -34 0
-32 -35 0
-32 -36 0
-32 -37 0
-32 -38 0
-32 -39 0
-32 -40 0
-33 -34 0
-33 -35 0
-33 -36 0
-33 -37 0
-33 -38 0
-33 -39 0
-33 -40 0
-34 -35 0
-34 -36 0
-34 -37 0
-34 -38 0
-34 -39 0
-34 -40 0
-35 -36 0
-35 -37 0
-35 -38 0
-35 -39 0
-35 -40 0
-36 -37 0
-36 -38 0
-36 -39 0
-36 -40 0
-37 -38 0
-37 -39 0
-37 -40 0
-38 -39 0
-38 -40 0
-39 -40 0
41 42 43 44 45 46 47 48 49 50 0
-41 -42 0
-41 -43 0
-41 -44 0
-41 -45 0
-41 -46 0
-41 -47 0
-41 -48 0
-41 -49 0
-41 -50 0
-42 -43 0
-42 -44 0
-42 -45 0
-42 -46 0
-42 -47 0
-42 -48 0
-42 -49 0
-42 -50 0
-43 -44 0
-43 -45 0
-43 -46 0
-43 -47 0
-43 -48 0
-43 -49 0
-43 -50 0
-44 -45 0
-44 -46 0
-44 -47 0
-44 -48 0
-44 -49 0
-44 -50 0
-45 -46 0
-45 -47 0
-45 -48 0
-45 -49 0
-45 -50 0
-46 -47 0
-46 -48 0
-46 -49 0
-46 -50 0
-47 -48 0
-47 -49 0
-47 -50 0
-48 -49 0
-48 -50 0
-49 -50 0
51 52 53 54 55 56 57 58 59 60 0
-51 -52 0
-51 -53 0
-51 -54 0
-51 -55 0
-51 -56 0
-51 -57 0
-51 -58 0
-51 -59 0
-51 -60 0
-52 -53 0
-52 -54 0
-52 -55 0
-52 -56 0
-52 -57 0
-52 -58 0
-52 -59 0
-52 -60 0
-53 -54 0
-53 -55 0
-53 -56 0
-53 -57 0
-53 -58 0
-53 -59 0
-53 -60 0
-54 -55 0
-54 -56 0
-54 -57 0
-54 -58 0
-54 -59 0
-54 -60 0
-55 -56 0
-55 -57 0
-55 -58 0
-55 -59 0
-55 -60 0
-56 -57 0
-56 -58 0
-56 -59 0
-56 -60 0
-57 -58 0
-57 -59 0
-57 -60 0
-58 -59 0
-58 -60 0
-59 -60 0
61 62 63 64 65 66 67 68 69 70 0
-61 -62 0
-61 -63 0
-61 -64 0
-61 -65 0
-61 -66 0
-61 -67 0
-61 -68 0
-61 -69 0
-61 -70 0
-62 -63 0
-62 -64 0
-62 -65 0
-62 -66 0
-62 -67 0
-62 -68 0
-62 -69 0
-62 -70 0
-63 -64 0
-63 -65 0
-63 -66 0
-63 -67 0
-63 -68 0
-63 -69 0
-63 -70 0
-64 -65 0
-64 -66 0
-64 -67 0
-64 -68 0
-64 -69 0
-64 -70 0
-65 -66 0
-65 -67 0
-65 -68 0
-65 -69 0
-65 -70 0
-66 -67 0
-66 -68 0
-66 -69 0
-66 -70 0
-67 -68 0
-67 -69 0
-67 -70 0
-68 -69 0
-68 -70 0
-69 -70 0
71 72 73 74 75 76 77 78 79 80 0
-71 -72 0
-71 -73 0
-71 -74 0
-71 -75 0
-71 -76 0
-71 -77 0
-71 -78 0
-71 -79 0
-71 -80 0
-72 -73 0
-72 -74 0
-72 -75 0
-72 -76 0
-72 -77 0
-72 -78 0
-72 -79 0
-72 -80 0
-73 -74 0
-73 -75 0
-73 -76 0
-73 -77 0
-73 -78 0
-73 -79 0
-73 -80 0
-74 -75 0
-74 -76 0
-74 -77 0
-74 -78 0
-74 -79 0
-74 -80 0
-75 -76 0
-75 -77 0
-75 -78 0
-75 -79 0
-75 -80 0
-76 -77 0
-76 -78 0
-76 -79 0
-76 -80 0
-77 -78 0
-77 -79 0
-77 -80 0
-78 -79 0
-78 -80 0
-79 -80 0
81 82 83 84 85 86 87 88 89 90 0
-81 -82 0
-81 -83 0
-81 -84 0
-81 -85 0
-81 -86 0
-81 -87 0
-81 -88 0
-81 -89 0
-81 -90 0
-82 -83 0
-82 -84 0
-82 -85 0
-82 -86 0
-82 -87 0
-82 -88 0
-82 -89 0
-82 -90 0
-83 -84 0
-83 -85 0
-83 -86 0
-83 -87 0
-83 -88 0
-83 -89 0
-83 -90 0
-84 -85 0
-84 -86 0
-84 -87 0
-84 -88 0
-84 -89 0
-84 -90 0
-85 -86 0
-85 -87 0
-85 -88 0
-85 -89 0
-85 -90 0
-86 -87 0
-86 -88 0
-86 -89 0
-86 -90 0
-87 -88 0
-87 -89 0
-87 -90 0
-88 -89 0
-88 -90 0
-89 -90 0
91 92 93 94 95 96 97 98 99 100 0
-91 -92 0
-91 -93 0
-91 -94 0
-91 -95 0
-91 -96 0
-91 -97 0
-91 -98 0
-91 -99 0
-91 -100 0
-92 -93 0
-92 -94 0
-92 -95 0
-92 -96 0
-92 -97 0
-92 -98 0
-92 -99 0
-92 -100 0
-93 -94 0
-93 -95 0
-93 -96 0
-93 -97 0
-93 -98 0
-93 -99 0
-93 -100 0
-94 -95 0
-94 -96 0
-94 -97 0
-94 -98 0
-94 -99 0
-94 -100 0
-95 -96 0
-95 -97 0
-95 -98 0
-95 -99 0
-95 -100 0
-96 -97 0
-96 -98 0
-96 -99 0
-96 -100 0
-97 -98 0
-97 -99 0
-97 -100 0
-98 -99 0
-98 -100 0
-99 -100 0
1 11 21 31 41 51 61 71 81 91 0
-1 -11 0
-1 -21 0
-1 -31 0
-1 -41 0
-1 -51 0
-1 -61 0
-1 -71 0
-1 -81 0
-1 -91 0
-11 -21 0
-11 -31 0
-11 -41 0
-11 -51 0
-11 -61 0
-11 -71 0
-11 -81 0
-11 -91 0
-21 -31 0
-21 -41 0
-21 -51 0
-21 -61 0
-21 -71 0
-21 -81 0
-21 -91 0
-31 -41 0
-31 -51 0
-31 -61 0
-31 -71 0
-31 -81 0
-31 -91 0
-41 -51 0
-41 -61 0
-41 -71 0
-41 -81 0
-41 -91 0
-51 -61 0
-51 -71 0
-51 -81 0
-51 -91 0
-61 -71 0
-61 -81 0
-61 -91 0
-71 -81 0
-71 -91 0
-81 -91 0
2 12 22 32 42 52 62 72 82 92 0
-2 -12 0
-2 -22 0
-2 -32 0
-2 -42 0
-2 -52 0
-2 -62 0
-2 -72 0
-2 -82 0
-2 -92 0
-12 -22 0
-12 -32 0
-12 -42 0
-12 -52 0
-12 -62 0
-12 -72 0
-12 -82 0
-12 -92 0
-22 -32 0
-22 -42 0
-22 -52 0
-22 -62 0
-22 -72 0
-22 -82 0
-22 -92 0
-32 -42 0
-32 -52 0
-32 -62 0
-32 -72 0
-32 -82 0
-32 -92 0
-42 -52 0
-42 -62 0
-42 -72 0
-42 -82 0
-42 -92 0
-52 -62 0
-52 -72 0
-52 -82 0
-52 -92 0
-62 -72 0
-62 -82 0
-62 -92 0
-72 -82 0
-72 -92 0
-82 -92 0
3 13 23 33 43 53 63 73 83 93 0
-3 -13 0
-3 -23 0
-3 -33 0
-3 -43 0
-3 -53 0
-3 -63 0
-3 -73 0
-3 -83 0
-3 -93 0
-13 -23 0
-13 -33 0
-13 -43 0
-13 -53 0
-13 -63 0
-13 -73 0
-13 -83 0
-13 -93 0
-23 -33 0
-23 -43 0
-23 -53 0
-23 -63 0
-23 -73 0
-23 -83 0
-23 -93 0
-33 -43 0
-33 -53 0
-33 -63 0
-33 -73 0
-33 -83 0
-33 -93 0
-43 -53 0
-43 -63 0
-43 -73 0
-43 -83 0
-43 -93 0
-53 -63 0
-53 -73 0
-53 -83 0
-53 -93 0
-63 -73 0
-63 -83 0
-63 -93 0
-73 -83 0
-73 -93 0
-83 -93 0
4 14 24 34 44 54 64 74 84 94 0
-4 -14 0
-4 -24 0
-4 -34 0
-4 -44 0
-4 -54 0
-4 -64 0
-4 -74 0
-4 -84 0
-4 -94 0
-14 -24 0
-14 -34 0
-14 -44 0
-14 -54 0
-14 -64 0
-14 -74 0
-14 -84 0
-14 -94 0
-24 -34 0
-24 -44 0
-24 -54 0
-24 -64 0
-24 -74 0
-24 -84 0
-24 -94 0
-34 -44 0
-34 -54 0
-34 -64 0
-34 -74 0
-34 -84 0
-34 -94 0
-44 -54 0
-44 -64 0
-44 -74 0
-44 -84 0
-44 -94 0
-54 -64 0
-54 -74 0
-54 -84 0
-54 -94 0
-64 -74 0
-64 -84 0
-64 -94 0
-74 -84 0
-74 -94 0
-84 -94 0
5 15 25 35 45 55 65 75 85 95 0
-5 -15 0
-5 -25 0
-5 -35 0
-5 -45 0
-5 -55 0
-5 -65 0
-5 -75 0
-5 -85 0
-5 -95 0
-15 -25 0
-15 -35 0
-15 -45 0
-15 -55 0
-15 -65 0
-15 -75 0
-15 -85 0
-15 -95 0
-25 -35 0
-25 -45 0
-25 -55 0
-25 -65 0
-25 -75 0
-25 -85 0
-25 -95 0
-35 -45 0
-35 -55 0
-35 -65 0
-35 -75 0
-35 -85 0
-35 -95 0
-45 -55 0
-45 -65 0
-45 -75 0
-45 -85 0
-45 -95 0
-55 -65 0
-55 -75 0
-55 -85 0
-55 -95 0
-65 -75 0
-65 -85 0
-65 -95 0
-75 -85 0
-75 -95 0
-85 -95 0
6 16 26 36 46 56 66 76 86 96 0
-6 -16 0
-6 -26 0
-6 -36 0
-6 -46 0
-6 -56 0
-6 -66 0
-6 -76 0
-6 -86 0
-6 -96 0
-16 -26 0
-16 -36 0
-16 -46 0
-16 -56 0
-16 -66 0
-16 -76 0
-16 -86 0
-16 -96 0
-26 -36 0
-26 -46 0
-26 -56 0
-26 -66 0
-26 -76 0
-26 -86 0
-26 -96 0
-36 -46 0
-36 -56 0
-36 -66 0
-36 -76 0
-36 -86 0
-36 -96 0
-46 -56 0
-46 -66 0
-46 -76 0
-46 -86 0
-46 -96 0
-56 -66 0
-56 -76 0
-56 -86 0
-56 -96 0
-66 -76 0
-66 -86 0
-66 -96 0
-76 -86 0
-76 -96 0
-86 -96 0
7 17 27 37 47 57 67 77 87 97 0
-7 -17 0
-7 -27 0
-7 -37 0
-7 -47 0
-7 -57 0
-7 -67 0
-7 -77 0
-7 -87 0
-7 -97 0
-17 -27 0
-17 -37 0
-17 -47 0
-17 -57 0
-17 -67 0
-17 -77 0
-17 -87 0
-17 -97 0
-27 -37 0
-27 -47 0
-27 -57 0
-27 -67 0
-27 -77 0
-27 -87 0
-27 -97 0
-37 -47 0
-37 -57 0
-37 -67 0
-37 -77 0
-37 -87 0
-37 -97 0
-47 -57 0
-47 -67 0
-47 -77 0
-47 -87 0
-47 -97 0
-57 -67 0
-57 -77 0
-57 -87 0
-57 -97 0
-67 -77 0
-67 -87 0
-67 -97 0
-77 -87 0
-77 -97 0
-87 -97 0
8 18 28 38 48 58 68 78 88 98 0
-8 -18 0
-8 -28 0
-8 -38 0
-8 -48 0
-8 -58 0
-8 -68 0
-8 -78 0
-8 -88 0
-8 -98 0
-18 -28 0
-18 -38 0
-18 -48 0
-18 -58 0
-18 -68 0
-18 -78 0
-18 -88 0
-18 -98 0
-28 -38 0
-28 -48 0
-28 -58 0
-28 -68 0
-28 -78 0
-28 -88 0
-28 -98 0
-38 -48 0
-38 -58 0
-38 -68 0
-38 -78 0
-38 -88 0
-38 -98 0
-48 -58 0
-48 -68 0
-48 -78 0
-48 -88 0
-48 -98 0
-58 -68 0
-58 -78 0
-58 -88 0
-58 -98 0
-68 -78 0
-68 -88 0
-68 -98 0
-78 -88 0
-78 -98 0
-88 -98 0
9 19 29 39 49 59 69 79 89 99 0
-9 -19 0
-9 -29 0
-9 -39 0
-9 -49 0
-9 -59 0
-9 -69 0
-9 -79 0
-9 -89 0
-9 -99 0
-19 -29 0
-19 -39 0
-19 -49 0
-19 -59 0
-19 -69 0
-19 -79 0
-19 -89 0
-19 -99 0
-29 -39 0
-29 -49 0
-29 -59 0
-29 -69 0
-29 -79 0
-29 -89 0
-29 -99 0
-39 -49 0
-39 -59 0
-39 -69 0
-39 -79 0
-39 -89 0
-39 -99 0
-49 -59 0
-49 -69 0
-49 -79 0
-49 -89 0
-49 -99 0
-59 -69 0
-59 -79 0
-59 -89 0
-59 -99 0
-69 -79 0
-69 -89 0
-69 -99 0
-79 -89 0
-79 -99 0
-89 -99 0
10 20 30 40 50 60 70 80 90 100 0
-10 -20 0
-10 -30 0
-10 -40 0
-10 -50 0
-10 -60 0
-10 -70 0
-10 -80 0
-10 -90 0
-10 -100 0
-20 -30 0
-20 -40 0
-20 -50 0
-20 -60 0
-20 -70 0
-20 -80 0
-20 -90 0
-20 -100 0
-30 -40 0
-30 -50 0
-30 -60 0
-30 -70 0
-30 -80 0
-30 -90 0
-30 -100 0
-40 -50 0
-40 -60 0
-40 -70 0
-40 -80 0
-40 -90 0
-40 -100 0
-50 -60 0
-50 -70 0
-50 -80 0
-50 -90 0
-50 -100 0
-60 -70 0
-60 -80 0
-60 -90 0
-60 -100 0
-70 -80 0
-70 -90 0
-70 -100 0
-80 -90 0
-80 -100 0
-90 -100 0
-81 -92 0
-71 -82 0
-71 -93 0
-82 -93 0
-61 -72 0
-61 -83 0
-61 -94 0
-72 -83 0
-72 -94 0
-83 -94 0
-51 -62 0
-51 -73 0
-51 -84 0
-51 -95 0
-62 -73 0
-62 -84 0
-62 -95 0
-73 -84 0
-73 -95 0
-84 -95 0
-41 -52 0
-41 -63 0
-41 -74 0
-41 -85 0
-41 -96 0
-52 -63 0
-52 -74 0
-52 -85 0
-52 -96 0
-63 -74 0
-63 -85 0
-63 -96 0
-74 -85 0
-74 -96 0
-85 -96 0
-31 -42 0
-31 -53 0
-31 -64 0
-31 -75 0
-31 -86 0
-31 -97 0
-42 -53 0
-42 -64 0
-42 -75 0
-42 -86 0
-42 -97 0
-53 -64 0
-53 -75 0
-53 -86 0
-53 -97 0
-64 -75 0
-64 -86 0
-64 -97 0
-75 -86 0
-75 -97 0
-86 -97 0
-21 -32 0
-21 -43 0
-21 -54 0
-21 -65 0
-21 -76 0
-21 -87 0
-21 -98 0
-32 -43 0
-32 -54 0
-32 -65 0
-32 -76 0
-32 -87 0
-32 -98 0
-43 -54 0
-43 -65 0
-43 -76 0
-43 -87 0
-43 -98 0
-54 -65 0
-54 -76 0
-54 -87 0
-54 -98 0
-65 -76 0
-65 -87 0
-65 -98 0
-76 -87 0
-76 -98 0
-87 -98 0
-11 -22 0
-11 -33 0
-11 -44 0
-11 -55 0
-11 -66 0
-11 -77 0
-11 -88 0
-11 -99 0
-22 -33 0
-22 -44 0
-22 -55 0
-22 -66 0
-22 -77 0
-22 -88 0
-22 -99 0
-33 -44 0
-33 -55 0
-33 -66 0
-33 -77 0
-33 -88 0
-33 -99 0
-44 -55 0
-44 -66 0
-44 -77 0
-44 -88 0
-44 -99 0
-55 -66 0
-55 -77 0
-55 -88 0
-55 -99 0
-66 -77 0
-66 -88 0
-66 -99 0
-77 -88 0
-77 -99 0
-88 -99 0
-1 -12 0
-1 -23 0
-1 -34 0
-1 -45 0
-1 -56 0
-1 -67 0
-1 -78 0
-1 -89 0
-1 -100 0
-12 -23 0
-12 -34 0
-12 -45 0
-12 -56 0
-12 -67 0
-12 -78 0
-12 -89 0
-12 -100 0
-23 -34 0
-23 -45 0
-23 -56 0
-23 -67 0
-23 -78 0
-23 -89 0
-23 -100 0
-34 -45 0
-34 -56 0
-34 -67 0
-34 -78 0
-34 -89 0
-34 -100 0
-45 -56 0
-45 -67 0
-45 -78 0
-45 -89 0
-45 -100 0
-56 -67 0
-56 -78 0
-56 -89 0
-56 -100 0
-67 -78 0
-67 -89 0
-67 -100 0
-78 -89 0
-78 -100 0
-89 -100 0
-2 -13 0
-2 -24 0
-2 -35 0
-2 -46 0
-2 -57 0
-2 -68 0
-2 -79 0
-2 -90 0
-13 -24 0
-13 -35 0
-13 -46 0
-13 -57 0
-13 -68 0
-13 -79 0
-13 -90 0
-24 -35 0
-24 -46 0
-24 -57 0
-24 -68 0
-24 -79 0
-24 -90 0
-35 -46 0
-35 -57 0
-35 -68 0
-35 -79 0
-35 -90 0
-46 -57 0
-46 -68 0
-46 -79 0
-46 -90 0
-57 -68 0
-57 -79 0
-57 -90 0
-68 -79 0
-68 -90 0
-79 -90 0
-3 -14 0
-3 -25 0
-3 -36 0
-3 -47 0
-3 -58 0
-3 -69 0
-3 -80 0
-14 -25 0
-14 -36 0
-14 -47 0
-14 -58 0
-14 -69 0
-14 -80 0
-25 -36 0
-25 -47 0
-25 -58 0
-25 -69 0
-25 -80 0
-36 -47 0
-36 -58 0
-36 -69 0
-36 -80 0
-47 -58 0
-47 -69 0
-47 -80 0
-58 -69 0
-58 -80 0
-69 -80 0
-4 -15 0
-4 -26 0
-4 -37 0
-4 -48 0
-4 -59 0
-4 -70 0
-15 -26 0
-15 -37 0
-15 -48 0
-15 -59 0
-15 -70 0
-26 -37 0
-26 -48 0
-26 -59 0
-26 -70 0
-37 -48 0
-37 -59 0
-37 -70 0
-48 -59 0
-48 -70 0
-59 -70 0
-5 -16 0
-5 -27 0
-5 -38 0
-5 -49 0
-5 -60 0
-16 -27 0
-16 -38 0
-16 -49 0
-16 -60 0
-27 -38 0
-27 -49 0
-27 -60 0
-38 -49 0
-38 -60 0
-49 -60 0
-6 -17 0
-6 -28 0
-6 -39 0
-6 -50 0
-17 -28 0
-17 -39 0
-17 -50 0
-28 -39 0
-28 -50 0
-39 -50 0
-7 -18 0
-7 -29 0
-7 -40 0
-18 -29 0
-18 -40 0
-29 -40 0
-8 -19 0
-8 -30 0
-19 -30 0
-9 -20 0
-90 -99 0
-80 -89 0
-80 -98 0
-89 -98 0
-70 -79 0
-70 -88 0
-70 -97 0
-79 -88 0
-79 -97 0
-88 -97 0
-60 -69 0
-60 -78 0
-60 -87 0
-60 -96 0
-69 -78 0
-69 -87 0
-69 -96 0
-78 -87 0
-78 -96 0
-87 -96 0
-50 -59 0
-50 -68 0
-50 -77 0
-50 -86 0
-50 -95 0
-59 -68 0
-59 -77 0
-59 -86 0
-59 -95 0
-68 -77 0
-68 -86 0
-68 -95 0
-77 -86 0
-77 -95 0
-86 -95 0
-40 -49 0
-40 -58 0
-40 -67 0
-40 -76 0
-40 -85 0
-40 -94 0
-49 -58 0
-49 -67 0
-49 -76 0
-49 -85 0
-49 -94 0
-58 -67 0
-58 -76 0
-58 -85 0
-58 -94 0
-67 -76 0
-67 -85 0
-67 -94 0
-76 -85 0
-76 -94 0
-85 -94 0
-30 -39 0
-30 -48 0
-30 -57 0
-30 -66 0
-30 -75 0
-30 -84 0
-30 -93 0
-39 -48 0
-39 -57 0
-39 -66 0
-39 -75 0
-39 -84 0
-39 -93 0
-48 -57 0
-48 -66 0
-48 -75 0
-48 -84 0
-48 -93 0
-57 -66 0
-57 -75 0
-57 -84 0
-57 -93 0
-66 -75 0
-66 -84 0
-66 -93 0
-75 -84 0
-75 -93 0
-84 -93 0
-20 -29 0
-20 -38 0
-20 -47 0
-20 -56 0
-20 -65 0
-20 -74 0
-20 -83 0
-20 -92 0
-29 -38 0
-29 -47 0
-29 -56 0
-29 -65 0
-29 -74 0
-29 -83 0
-29 -92 0
-38 -47 0
-38 -56 0
-38 -65 0
-38 -74 0
-38 -83 0
-38 -92 0
-47 -56 0
-47 -65 0
-47 -74 0
-47 -83 0
-47 -92 0
-56 -65 0
-56 -74 0
-56 -83 0
-56 -92 0
-65 -74 0
-65 -83 0
-65 -92 0
-74 -83 0
-74 -92 0
-83 -92 0
-10 -19 0
-10 -28 0
-10 -37 0
-10 -46 0
-10 -55 0
-10 -64 0
-10 -73 0
-10 -82 0
-10 -91 0
-19 -28 0
-19 -37 0
-19 -46 0
-19 -55 0
-19 -64 0
-19 -73 0
-19 -82 0
-19 -91 0
-28 -37 0
-28 -46 0
-28 -55 0
-28 -64 0
-28 -73 0
-28 -82 0
-28 -91 0
-37 -46 0
-37 -55 0
-37 -64 0
-37 -73 0
-37 -82 0
-37 -91 0
-46 -55 0
-46 -64 0
-46 -73 0
-46 -82 0
-46 -91 0
-55 -64 0
-55 -73 0
-55 -82 0
-55 -91 0
-64 -73 0
-64 -82 0
-64 -91 0
-73 -82 0
-73 -91 0
-82 -91 0
-9 -18 0
-9 -27 0
-9 -36 0
-9 -45 0
-9 -54 0
-9 -63 0
-9 -72 0
-9 -81 0
-18 -27 0
-18 -36 0
-18 -45 0
-18 -54 0
-18 -63 0
-18 -72 0
-18 -81 0
-27 -36 0
-27 -45 0
-27 -54 0
-27 -63 0
-27 -72 0
-27 -81 0
-36 -45 0
-36 -54 0
-36 -63 0
-36 -72 0
-36 -81 0
-45 -54 0
-45 -63 0
-45 -72 0
-45 -81 0
-54 -63 0
-54 -72 0
-54 -81 0
-63 -72 0
-63 -81 0
-72 -81 0
-8 -17 0
-8 -26 0
-8 -35 0
-8 -44 0
-8 -53 0
-8 -62 0
-8 -71 0
-17 -26 0
-17 -35 0
-17 -44 0
-17 -53 0
-17 -62 0
-17 -71 0
-26 -35 0
-26 -44 0
-26 -53 0
-26 -62 0
-26 -71 0
-35 -44 0
-35 -53 0
-35 -62 0
-35 -71 0
-44 -53 0
-44 -62 0
-44 -71 0
-53 -62 0
-53 -71 0
-62 -71 0
-7 -16 0
-7 -25 0
-7 -34 0
-7 -43 0
-7 -52 0
-7 -61 0
-16 -25 0
-16 -34 0
-16 -43 0
-16 -52 0
-16 -61 0
-25 -34 0
-25 -43 0
-25 -52 0
-25 -61 0
-34 -43 0
-34 -52 0
-34 -61 0
-43 -52 0
-43 -61 0
-52 -61 0
-6 -15 0
-6 -24 0
-6 -33 0
-6 -42 0
-6 -51 0
-15 -24 0
-15 -33 0
-15 -42 0
-15 -51 0
-24 -33 0
-24 -42 0
-24 -51 0
-33 -42 0
-33 -51 0
-42 -51 0
-5 -14 0
-5 -23 0
-5 -32 0
-5 -41 0
-14 -23 0
-14 -32 0
-14 -41 0
-23 -32 0
-23 -41 0
-32 -41 0
-4 -13 0
-4 -22 0
-4 -31 0
-13 -22 0
-13 -31 0
-22 -31 0
-3 -12 0
-3 -21 0
-12 -21 0
-2 -11 0